\ This file has been generated by DOcplex
\ ENCODING=ISO-8859-1
\Problem name: {self.PROBLEM.name} LEADER SOTA problem

Maximize
 obj: V
Subject To
 c1: V + 14 a0_0 + 13 a0_1 <= 0
 c2: V + 23 a0_0 + 18 a0_1 <= 0
 c3: a0_0 + a0_1 = 1

Bounds
       a0_0 <= 1
       a0_1 <= 1
       V Free
End
